p tw 576 2464
1 33
2 34
3 35
4 36
5 37
6 38
7 39
8 40
9 41
10 42
11 43
12 44
13 45
14 46
15 47
16 48
17 49
18 50
19 51
20 52
21 53
22 54
23 55
24 56
25 57
26 58
27 59
28 60
29 61
30 62
31 63
32 64
33 85
33 98
33 121
33 123
33 124
34 108
34 109
34 110
34 111
34 112
35 84
35 108
35 118
35 121
35 122
36 77
36 114
36 139
36 142
36 143
37 65
37 80
37 81
37 82
37 83
38 75
38 130
38 136
38 137
38 138
39 111
39 127
39 154
39 156
39 157
40 73
40 94
40 123
40 149
40 151
41 75
41 76
41 77
41 78
41 79
42 113
42 116
42 118
42 119
42 120
43 81
43 88
43 89
43 90
43 91
44 92
44 93
44 94
44 95
44 96
45 102
45 109
45 125
45 130
45 131
46 134
46 137
46 156
46 158
46 160
47 88
47 93
47 97
47 116
47 117
48 110
48 140
48 152
48 154
48 155
49 76
49 99
49 139
49 140
49 141
50 66
50 92
50 101
50 106
50 107
51 101
51 102
51 103
51 104
51 105
52 65
52 66
52 67
52 68
52 69
53 72
53 126
53 144
53 147
53 148
54 86
54 89
54 132
54 134
54 135
55 67
55 70
55 113
55 114
55 115
56 90
56 142
56 144
56 145
56 146
57 104
57 136
57 145
57 152
57 153
58 68
58 71
58 103
58 132
58 133
59 78
59 106
59 119
59 149
59 150
60 95
60 128
60 147
60 158
60 159
61 125
61 126
61 127
61 128
61 129
62 80
62 84
62 85
62 86
62 87
63 70
63 71
63 72
63 73
63 74
64 82
64 97
64 98
64 99
64 100
65 66
65 67
65 68
65 69
65 80
65 81
65 82
65 83
66 67
66 68
66 69
66 92
66 101
66 106
66 107
67 68
67 69
67 70
67 113
67 114
67 115
68 69
68 71
68 103
68 132
68 133
69 161
69 162
69 163
69 164
69 165
70 71
70 72
70 73
70 74
70 113
70 114
70 115
71 72
71 73
71 74
71 103
71 132
71 133
72 73
72 74
72 126
72 144
72 147
72 148
73 74
73 94
73 123
73 149
73 151
74 166
74 167
74 168
74 169
74 170
75 76
75 77
75 78
75 79
75 130
75 136
75 137
75 138
76 77
76 78
76 79
76 99
76 139
76 140
76 141
77 78
77 79
77 114
77 139
77 142
77 143
78 79
78 106
78 119
78 149
78 150
79 171
79 172
79 173
79 174
79 175
80 81
80 82
80 83
80 84
80 85
80 86
80 87
81 82
81 83
81 88
81 89
81 90
81 91
82 83
82 97
82 98
82 99
82 100
83 161
83 176
83 177
83 178
83 179
84 85
84 86
84 87
84 108
84 118
84 121
84 122
85 86
85 87
85 98
85 121
85 123
85 124
86 87
86 89
86 132
86 134
86 135
87 176
87 180
87 181
87 182
87 183
88 89
88 90
88 91
88 93
88 97
88 116
88 117
89 90
89 91
89 132
89 134
89 135
90 91
90 142
90 144
90 145
90 146
91 177
91 184
91 185
91 186
91 187
92 93
92 94
92 95
92 96
92 101
92 106
92 107
93 94
93 95
93 96
93 97
93 116
93 117
94 95
94 96
94 123
94 149
94 151
95 96
95 128
95 147
95 158
95 159
96 188
96 189
96 190
96 191
96 192
97 98
97 99
97 100
97 116
97 117
98 99
98 100
98 121
98 123
98 124
99 100
99 139
99 140
99 141
100 178
100 193
100 194
100 195
100 196
101 102
101 103
101 104
101 105
101 106
101 107
102 103
102 104
102 105
102 109
102 125
102 130
102 131
103 104
103 105
103 132
103 133
104 105
104 136
104 145
104 152
104 153
105 197
105 198
105 199
105 200
105 201
106 107
106 119
106 149
106 150
107 162
107 188
107 197
107 202
107 203
108 109
108 110
108 111
108 112
108 118
108 121
108 122
109 110
109 111
109 112
109 125
109 130
109 131
110 111
110 112
110 140
110 152
110 154
110 155
111 112
111 127
111 154
111 156
111 157
112 204
112 205
112 206
112 207
112 208
113 114
113 115
113 116
113 118
113 119
113 120
114 115
114 139
114 142
114 143
115 163
115 166
115 209
115 210
115 211
116 117
116 118
116 119
116 120
117 184
117 189
117 193
117 212
117 213
118 119
118 120
118 121
118 122
119 120
119 149
119 150
120 209
120 212
120 214
120 215
120 216
121 122
121 123
121 124
122 180
122 204
122 214
122 217
122 218
123 124
123 149
123 151
124 181
124 194
124 217
124 219
124 220
125 126
125 127
125 128
125 129
125 130
125 131
126 127
126 128
126 129
126 144
126 147
126 148
127 128
127 129
127 154
127 156
127 157
128 129
128 147
128 158
128 159
129 221
129 222
129 223
129 224
129 225
130 131
130 136
130 137
130 138
131 198
131 205
131 221
131 226
131 227
132 133
132 134
132 135
133 164
133 167
133 199
133 228
133 229
134 135
134 137
134 156
134 158
134 160
135 182
135 185
135 228
135 230
135 231
136 137
136 138
136 145
136 152
136 153
137 138
137 156
137 158
137 160
138 171
138 226
138 232
138 233
138 234
139 140
139 141
139 142
139 143
140 141
140 152
140 154
140 155
141 172
141 195
141 235
141 236
141 237
142 143
142 144
142 145
142 146
143 173
143 210
143 235
143 238
143 239
144 145
144 146
144 147
144 148
145 146
145 152
145 153
146 186
146 238
146 240
146 241
146 242
147 148
147 158
147 159
148 168
148 222
148 240
148 243
148 244
149 150
149 151
150 174
150 202
150 215
150 245
150 246
151 169
151 190
151 219
151 245
151 247
152 153
152 154
152 155
153 200
153 232
153 241
153 248
153 249
154 155
154 156
154 157
155 206
155 236
155 248
155 250
155 251
156 157
156 158
156 160
157 207
157 223
157 250
157 252
157 253
158 159
158 160
159 191
159 224
159 243
159 254
159 255
160 230
160 233
160 252
160 254
160 256
161 162
161 163
161 164
161 165
161 176
161 177
161 178
161 179
162 163
162 164
162 165
162 188
162 197
162 202
162 203
163 164
163 165
163 166
163 209
163 210
163 211
164 165
164 167
164 199
164 228
164 229
165 257
165 258
165 259
165 260
165 261
166 167
166 168
166 169
166 170
166 209
166 210
166 211
167 168
167 169
167 170
167 199
167 228
167 229
168 169
168 170
168 222
168 240
168 243
168 244
169 170
169 190
169 219
169 245
169 247
170 262
170 263
170 264
170 265
170 266
171 172
171 173
171 174
171 175
171 226
171 232
171 233
171 234
172 173
172 174
172 175
172 195
172 235
172 236
172 237
173 174
173 175
173 210
173 235
173 238
173 239
174 175
174 202
174 215
174 245
174 246
175 267
175 268
175 269
175 270
175 271
176 177
176 178
176 179
176 180
176 181
176 182
176 183
177 178
177 179
177 184
177 185
177 186
177 187
178 179
178 193
178 194
178 195
178 196
179 257
179 272
179 273
179 274
179 275
180 181
180 182
180 183
180 204
180 214
180 217
180 218
181 182
181 183
181 194
181 217
181 219
181 220
182 183
182 185
182 228
182 230
182 231
183 272
183 276
183 277
183 278
183 279
184 185
184 186
184 187
184 189
184 193
184 212
184 213
185 186
185 187
185 228
185 230
185 231
186 187
186 238
186 240
186 241
186 242
187 273
187 280
187 281
187 282
187 283
188 189
188 190
188 191
188 192
188 197
188 202
188 203
189 190
189 191
189 192
189 193
189 212
189 213
190 191
190 192
190 219
190 245
190 247
191 192
191 224
191 243
191 254
191 255
192 284
192 285
192 286
192 287
192 288
193 194
193 195
193 196
193 212
193 213
194 195
194 196
194 217
194 219
194 220
195 196
195 235
195 236
195 237
196 274
196 289
196 290
196 291
196 292
197 198
197 199
197 200
197 201
197 202
197 203
198 199
198 200
198 201
198 205
198 221
198 226
198 227
199 200
199 201
199 228
199 229
200 201
200 232
200 241
200 248
200 249
201 293
201 294
201 295
201 296
201 297
202 203
202 215
202 245
202 246
203 258
203 284
203 293
203 298
203 299
204 205
204 206
204 207
204 208
204 214
204 217
204 218
205 206
205 207
205 208
205 221
205 226
205 227
206 207
206 208
206 236
206 248
206 250
206 251
207 208
207 223
207 250
207 252
207 253
208 300
208 301
208 302
208 303
208 304
209 210
209 211
209 212
209 214
209 215
209 216
210 211
210 235
210 238
210 239
211 259
211 262
211 305
211 306
211 307
212 213
212 214
212 215
212 216
213 280
213 285
213 289
213 308
213 309
214 215
214 216
214 217
214 218
215 216
215 245
215 246
216 305
216 308
216 310
216 311
216 312
217 218
217 219
217 220
218 276
218 300
218 310
218 313
218 314
219 220
219 245
219 247
220 277
220 290
220 313
220 315
220 316
221 222
221 223
221 224
221 225
221 226
221 227
222 223
222 224
222 225
222 240
222 243
222 244
223 224
223 225
223 250
223 252
223 253
224 225
224 243
224 254
224 255
225 317
225 318
225 319
225 320
225 321
226 227
226 232
226 233
226 234
227 294
227 301
227 317
227 322
227 323
228 229
228 230
228 231
229 260
229 263
229 295
229 324
229 325
230 231
230 233
230 252
230 254
230 256
231 278
231 281
231 324
231 326
231 327
232 233
232 234
232 241
232 248
232 249
233 234
233 252
233 254
233 256
234 267
234 322
234 328
234 329
234 330
235 236
235 237
235 238
235 239
236 237
236 248
236 250
236 251
237 268
237 291
237 331
237 332
237 333
238 239
238 240
238 241
238 242
239 269
239 306
239 331
239 334
239 335
240 241
240 242
240 243
240 244
241 242
241 248
241 249
242 282
242 334
242 336
242 337
242 338
243 244
243 254
243 255
244 264
244 318
244 336
244 339
244 340
245 246
245 247
246 270
246 298
246 311
246 341
246 342
247 265
247 286
247 315
247 341
247 343
248 249
248 250
248 251
249 296
249 328
249 337
249 344
249 345
250 251
250 252
250 253
251 302
251 332
251 344
251 346
251 347
252 253
252 254
252 256
253 303
253 319
253 346
253 348
253 349
254 255
254 256
255 287
255 320
255 339
255 350
255 351
256 326
256 329
256 348
256 350
256 352
257 258
257 259
257 260
257 261
257 272
257 273
257 274
257 275
258 259
258 260
258 261
258 284
258 293
258 298
258 299
259 260
259 261
259 262
259 305
259 306
259 307
260 261
260 263
260 295
260 324
260 325
261 353
261 354
261 355
261 356
261 357
262 263
262 264
262 265
262 266
262 305
262 306
262 307
263 264
263 265
263 266
263 295
263 324
263 325
264 265
264 266
264 318
264 336
264 339
264 340
265 266
265 286
265 315
265 341
265 343
266 358
266 359
266 360
266 361
266 362
267 268
267 269
267 270
267 271
267 322
267 328
267 329
267 330
268 269
268 270
268 271
268 291
268 331
268 332
268 333
269 270
269 271
269 306
269 331
269 334
269 335
270 271
270 298
270 311
270 341
270 342
271 363
271 364
271 365
271 366
271 367
272 273
272 274
272 275
272 276
272 277
272 278
272 279
273 274
273 275
273 280
273 281
273 282
273 283
274 275
274 289
274 290
274 291
274 292
275 353
275 368
275 369
275 370
275 371
276 277
276 278
276 279
276 300
276 310
276 313
276 314
277 278
277 279
277 290
277 313
277 315
277 316
278 279
278 281
278 324
278 326
278 327
279 368
279 372
279 373
279 374
279 375
280 281
280 282
280 283
280 285
280 289
280 308
280 309
281 282
281 283
281 324
281 326
281 327
282 283
282 334
282 336
282 337
282 338
283 369
283 376
283 377
283 378
283 379
284 285
284 286
284 287
284 288
284 293
284 298
284 299
285 286
285 287
285 288
285 289
285 308
285 309
286 287
286 288
286 315
286 341
286 343
287 288
287 320
287 339
287 350
287 351
288 380
288 381
288 382
288 383
288 384
289 290
289 291
289 292
289 308
289 309
290 291
290 292
290 313
290 315
290 316
291 292
291 331
291 332
291 333
292 370
292 385
292 386
292 387
292 388
293 294
293 295
293 296
293 297
293 298
293 299
294 295
294 296
294 297
294 301
294 317
294 322
294 323
295 296
295 297
295 324
295 325
296 297
296 328
296 337
296 344
296 345
297 389
297 390
297 391
297 392
297 393
298 299
298 311
298 341
298 342
299 354
299 380
299 389
299 394
299 395
300 301
300 302
300 303
300 304
300 310
300 313
300 314
301 302
301 303
301 304
301 317
301 322
301 323
302 303
302 304
302 332
302 344
302 346
302 347
303 304
303 319
303 346
303 348
303 349
304 396
304 397
304 398
304 399
304 400
305 306
305 307
305 308
305 310
305 311
305 312
306 307
306 331
306 334
306 335
307 355
307 358
307 401
307 402
307 403
308 309
308 310
308 311
308 312
309 376
309 381
309 385
309 404
309 405
310 311
310 312
310 313
310 314
311 312
311 341
311 342
312 401
312 404
312 406
312 407
312 408
313 314
313 315
313 316
314 372
314 396
314 406
314 409
314 410
315 316
315 341
315 343
316 373
316 386
316 409
316 411
316 412
317 318
317 319
317 320
317 321
317 322
317 323
318 319
318 320
318 321
318 336
318 339
318 340
319 320
319 321
319 346
319 348
319 349
320 321
320 339
320 350
320 351
321 413
321 414
321 415
321 416
321 417
322 323
322 328
322 329
322 330
323 390
323 397
323 413
323 418
323 419
324 325
324 326
324 327
325 356
325 359
325 391
325 420
325 421
326 327
326 329
326 348
326 350
326 352
327 374
327 377
327 420
327 422
327 423
328 329
328 330
328 337
328 344
328 345
329 330
329 348
329 350
329 352
330 363
330 418
330 424
330 425
330 426
331 332
331 333
331 334
331 335
332 333
332 344
332 346
332 347
333 364
333 387
333 427
333 428
333 429
334 335
334 336
334 337
334 338
335 365
335 402
335 427
335 430
335 431
336 337
336 338
336 339
336 340
337 338
337 344
337 345
338 378
338 430
338 432
338 433
338 434
339 340
339 350
339 351
340 360
340 414
340 432
340 435
340 436
341 342
341 343
342 366
342 394
342 407
342 437
342 438
343 361
343 382
343 411
343 437
343 439
344 345
344 346
344 347
345 392
345 424
345 433
345 440
345 441
346 347
346 348
346 349
347 398
347 428
347 440
347 442
347 443
348 349
348 350
348 352
349 399
349 415
349 442
349 444
349 445
350 351
350 352
351 383
351 416
351 435
351 446
351 447
352 422
352 425
352 444
352 446
352 448
353 354
353 355
353 356
353 357
353 368
353 369
353 370
353 371
354 355
354 356
354 357
354 380
354 389
354 394
354 395
355 356
355 357
355 358
355 401
355 402
355 403
356 357
356 359
356 391
356 420
356 421
357 449
357 450
357 451
357 452
357 453
358 359
358 360
358 361
358 362
358 401
358 402
358 403
359 360
359 361
359 362
359 391
359 420
359 421
360 361
360 362
360 414
360 432
360 435
360 436
361 362
361 382
361 411
361 437
361 439
362 454
362 455
362 456
362 457
362 458
363 364
363 365
363 366
363 367
363 418
363 424
363 425
363 426
364 365
364 366
364 367
364 387
364 427
364 428
364 429
365 366
365 367
365 402
365 427
365 430
365 431
366 367
366 394
366 407
366 437
366 438
367 459
367 460
367 461
367 462
367 463
368 369
368 370
368 371
368 372
368 373
368 374
368 375
369 370
369 371
369 376
369 377
369 378
369 379
370 371
370 385
370 386
370 387
370 388
371 449
371 464
371 465
371 466
371 467
372 373
372 374
372 375
372 396
372 406
372 409
372 410
373 374
373 375
373 386
373 409
373 411
373 412
374 375
374 377
374 420
374 422
374 423
375 464
375 468
375 469
375 470
375 471
376 377
376 378
376 379
376 381
376 385
376 404
376 405
377 378
377 379
377 420
377 422
377 423
378 379
378 430
378 432
378 433
378 434
379 465
379 472
379 473
379 474
379 475
380 381
380 382
380 383
380 384
380 389
380 394
380 395
381 382
381 383
381 384
381 385
381 404
381 405
382 383
382 384
382 411
382 437
382 439
383 384
383 416
383 435
383 446
383 447
384 476
384 477
384 478
384 479
384 480
385 386
385 387
385 388
385 404
385 405
386 387
386 388
386 409
386 411
386 412
387 388
387 427
387 428
387 429
388 466
388 481
388 482
388 483
388 484
389 390
389 391
389 392
389 393
389 394
389 395
390 391
390 392
390 393
390 397
390 413
390 418
390 419
391 392
391 393
391 420
391 421
392 393
392 424
392 433
392 440
392 441
393 485
393 486
393 487
393 488
393 489
394 395
394 407
394 437
394 438
395 450
395 476
395 485
395 490
395 491
396 397
396 398
396 399
396 400
396 406
396 409
396 410
397 398
397 399
397 400
397 413
397 418
397 419
398 399
398 400
398 428
398 440
398 442
398 443
399 400
399 415
399 442
399 444
399 445
400 492
400 493
400 494
400 495
400 496
401 402
401 403
401 404
401 406
401 407
401 408
402 403
402 427
402 430
402 431
403 451
403 454
403 497
403 498
403 499
404 405
404 406
404 407
404 408
405 472
405 477
405 481
405 500
405 501
406 407
406 408
406 409
406 410
407 408
407 437
407 438
408 497
408 500
408 502
408 503
408 504
409 410
409 411
409 412
410 468
410 492
410 502
410 505
410 506
411 412
411 437
411 439
412 469
412 482
412 505
412 507
412 508
413 414
413 415
413 416
413 417
413 418
413 419
414 415
414 416
414 417
414 432
414 435
414 436
415 416
415 417
415 442
415 444
415 445
416 417
416 435
416 446
416 447
417 509
417 510
417 511
417 512
417 513
418 419
418 424
418 425
418 426
419 486
419 493
419 509
419 514
419 515
420 421
420 422
420 423
421 452
421 455
421 487
421 516
421 517
422 423
422 425
422 444
422 446
422 448
423 470
423 473
423 516
423 518
423 519
424 425
424 426
424 433
424 440
424 441
425 426
425 444
425 446
425 448
426 459
426 514
426 520
426 521
426 522
427 428
427 429
427 430
427 431
428 429
428 440
428 442
428 443
429 460
429 483
429 523
429 524
429 525
430 431
430 432
430 433
430 434
431 461
431 498
431 523
431 526
431 527
432 433
432 434
432 435
432 436
433 434
433 440
433 441
434 474
434 526
434 528
434 529
434 530
435 436
435 446
435 447
436 456
436 510
436 528
436 531
436 532
437 438
437 439
438 462
438 490
438 503
438 533
438 534
439 457
439 478
439 507
439 533
439 535
440 441
440 442
440 443
441 488
441 520
441 529
441 536
441 537
442 443
442 444
442 445
443 494
443 524
443 536
443 538
443 539
444 445
444 446
444 448
445 495
445 511
445 538
445 540
445 541
446 447
446 448
447 479
447 512
447 531
447 542
447 543
448 518
448 521
448 540
448 542
448 544
449 450
449 451
449 452
449 453
449 464
449 465
449 466
449 467
450 451
450 452
450 453
450 476
450 485
450 490
450 491
451 452
451 453
451 454
451 497
451 498
451 499
452 453
452 455
452 487
452 516
452 517
453 557
454 455
454 456
454 457
454 458
454 497
454 498
454 499
455 456
455 457
455 458
455 487
455 516
455 517
456 457
456 458
456 510
456 528
456 531
456 532
457 458
457 478
457 507
457 533
457 535
458 546
459 460
459 461
459 462
459 463
459 514
459 520
459 521
459 522
460 461
460 462
460 463
460 483
460 523
460 524
460 525
461 462
461 463
461 498
461 523
461 526
461 527
462 463
462 490
462 503
462 533
462 534
463 568
464 465
464 466
464 467
464 468
464 469
464 470
464 471
465 466
465 467
465 472
465 473
465 474
465 475
466 467
466 481
466 482
466 483
466 484
467 572
468 469
468 470
468 471
468 492
468 502
468 505
468 506
469 470
469 471
469 482
469 505
469 507
469 508
470 471
470 473
470 516
470 518
470 519
471 547
472 473
472 474
472 475
472 477
472 481
472 500
472 501
473 474
473 475
473 516
473 518
473 519
474 475
474 526
474 528
474 529
474 530
475 566
476 477
476 478
476 479
476 480
476 485
476 490
476 491
477 478
477 479
477 480
477 481
477 500
477 501
478 479
478 480
478 507
478 533
478 535
479 480
479 512
479 531
479 542
479 543
480 565
481 482
481 483
481 484
481 500
481 501
482 483
482 484
482 505
482 507
482 508
483 484
483 523
483 524
483 525
484 545
485 486
485 487
485 488
485 489
485 490
485 491
486 487
486 488
486 489
486 493
486 509
486 514
486 515
487 488
487 489
487 516
487 517
488 489
488 520
488 529
488 536
488 537
489 558
490 491
490 503
490 533
490 534
491 559
492 493
492 494
492 495
492 496
492 502
492 505
492 506
493 494
493 495
493 496
493 509
493 514
493 515
494 495
494 496
494 524
494 536
494 538
494 539
495 496
495 511
495 538
495 540
495 541
496 575
497 498
497 499
497 500
497 502
497 503
497 504
498 499
498 523
498 526
498 527
499 554
500 501
500 502
500 503
500 504
501 562
502 503
502 504
502 505
502 506
503 504
503 533
503 534
504 567
505 506
505 507
505 508
506 574
507 508
507 533
507 535
508 576
509 510
509 511
509 512
509 513
509 514
509 515
510 511
510 512
510 513
510 528
510 531
510 532
511 512
511 513
511 538
511 540
511 541
512 513
512 531
512 542
512 543
513 548
514 515
514 520
514 521
514 522
515 564
516 517
516 518
516 519
517 551
518 519
518 521
518 540
518 542
518 544
519 555
520 521
520 522
520 529
520 536
520 537
521 522
521 540
521 542
521 544
522 571
523 524
523 525
523 526
523 527
524 525
524 536
524 538
524 539
525 560
526 527
526 528
526 529
526 530
527 573
528 529
528 530
528 531
528 532
529 530
529 536
529 537
530 553
531 532
531 542
531 543
532 556
533 534
533 535
534 550
535 569
536 537
536 538
536 539
537 552
538 539
538 540
538 541
539 561
540 541
540 542
540 544
541 570
542 543
542 544
543 549
544 563
